60

 0   0   0  10  20  40  40  50  10  10  10  14  32  41  41  51  20  22  36  54  54  54  54  63  32  32  32  36  42  50  58  58  58  58  40  45  45  50  50  50  64  72  50  51  51  51  51  51  54  58  71  60  61  67  67  67  72  85  85  85  
 0   0   0  10  20  40  40  50  10  10  10  14  32  41  41  51  20  22  36  54  54  54  54  63  32  32  32  36  42  50  58  58  58  58  40  45  45  50  50  50  64  72  50  51  51  51  51  51  54  58  71  60  61  67  67  67  72  85  85  85  
 0   0   0  10  20  40  40  50  10  10  10  14  32  41  41  51  20  22  36  54  54  54  54  63  32  32  32  36  42  50  58  58  58  58  40  45  45  50  50  50  64  72  50  51  51  51  51  51  54  58  71  60  61  67  67  67  72  85  85  85  
10  10  10   0  10  30  30  40  14  14  14  10  22  32  32  41  22  20  28  45  45  45  45  54  30  30  30  32  36  42  50  50  50  50  41  41  41  45  45  45  57  64  51  50  50  50  50  50  51  54  64  61  60  63  63  63  67  78  78  78  
20  20  20  10   0  20  20  30  22  22  22  14  14  22  22  32  28  22  22  36  36  36  36  45  32  32  32  30  32  36  42  42  42  42  45  40  40  41  41  41  50  57  54  51  51  51  51  51  50  51  58  63  61  61  61  61  63  72  72  72  
40  40  40  30  20   0   0  10  41  41  41  32  14  10  10  14  45  36  22  22  22  22  22  28  42  42  42  36  32  30  32  32  32  32  57  45  45  41  41  41  41  45  64  58  58  58  58  58  54  51  51  72  67  61  61  61  60  63  63  63  
40  40  40  30  20   0   0  10  41  41  41  32  14  10  10  14  45  36  22  22  22  22  22  28  42  42  42  36  32  30  32  32  32  32  57  45  45  41  41  41  41  45  64  58  58  58  58  58  54  51  51  72  67  61  61  61  60  63  63  63  
50  50  50  40  30  10  10   0  51  51  51  41  22  14  14  10  54  45  28  20  20  20  20  22  50  50  50  42  36  32  30  30  30  30  64  50  50  45  45  45  40  41  71  64  64  64  64  64  58  54  50  78  72  63  63  63  61  61  61  61  
10  10  10  14  22  41  41  51   0   0   0  10  30  40  40  50  10  14  32  51  51  51  51  61  22  22  22  28  36  45  54  54  54  54  30  36  36  42  42  42  58  67  40  41  41  41  41  41  45  50  64  50  51  58  58  58  64  78  78  78  
10  10  10  14  22  41  41  51   0   0   0  10  30  40  40  50  10  14  32  51  51  51  51  61  22  22  22  28  36  45  54  54  54  54  30  36  36  42  42  42  58  67  40  41  41  41  41  41  45  50  64  50  51  58  58  58  64  78  78  78  
10  10  10  14  22  41  41  51   0   0   0  10  30  40  40  50  10  14  32  51  51  51  51  61  22  22  22  28  36  45  54  54  54  54  30  36  36  42  42  42  58  67  40  41  41  41  41  41  45  50  64  50  51  58  58  58  64  78  78  78  
14  14  14  10  14  32  32  41  10  10  10   0  20  30  30  40  14  10  22  41  41  41  41  51  20  20  20  22  28  36  45  45  45  45  32  32  32  36  36  36  50  58  41  40  40  40  40  40  41  45  57  51  50  54  54  54  58  71  71  71  
32  32  32  22  14  14  14  22  30  30  30  20   0  10  10  20  32  22  10  22  22  22  22  32  28  28  28  22  20  22  28  28  28  28  42  32  32  30  30  30  36  42  50  45  45  45  45  45  41  40  45  58  54  50  50  50  51  58  58  58  
41  41  41  32  22  10  10  14  40  40  40  30  10   0   0  10  41  32  14  14  14  14  14  22  36  36  36  28  22  20  22  22  22  22  50  36  36  32  32  32  32  36  57  50  50  50  50  50  45  41  41  64  58  51  51  51  50  54  54  54  
41  41  41  32  22  10  10  14  40  40  40  30  10   0   0  10  41  32  14  14  14  14  14  22  36  36  36  28  22  20  22  22  22  22  50  36  36  32  32  32  32  36  57  50  50  50  50  50  45  41  41  64  58  51  51  51  50  54  54  54  
51  51  51  41  32  14  14  10  50  50  50  40  20  10  10   0  51  41  22  10  10  10  10  14  45  45  45  36  28  22  20  20  20  20  58  42  42  36  36  36  30  32  64  57  57  57  57  57  50  45  40  71  64  54  54  54  51  51  51  51  
20  20  20  22  28  45  45  54  10  10  10  14  32  41  41  51   0  10  30  50  50  50  50  60  14  14  14  22  32  41  51  51  51  51  20  28  28  36  36  36  54  63  30  32  32  32  32  32  36  42  58  40  41  50  50  50  57  72  72  72  
22  22  22  20  22  36  36  45  14  14  14  10  22  32  32  41  10   0  20  40  40  40  40  50  10  10  10  14  22  32  41  41  41  41  22  22  22  28  28  28  45  54  32  30  30  30  30  30  32  36  50  41  40  45  45  45  50  64  64  64  
36  36  36  28  22  22  22  28  32  32  32  22  10  14  14  22  30  20   0  20  20  20  20  30  22  22  22  14  10  14  22  22  22  22  36  22  22  20  20  20  28  36  42  36  36  36  36  36  32  30  36  50  45  40  40  40  41  50  50  50  
54  54  54  45  36  22  22  20  51  51  51  41  22  14  14  10  50  40  20   0   0   0   0  10  41  41  41  32  22  14  10  10  10  10  54  36  36  28  28  28  20  22  58  50  50  50  50  50  42  36  30  64  57  45  45  45  41  41  41  41  
54  54  54  45  36  22  22  20  51  51  51  41  22  14  14  10  50  40  20   0   0   0   0  10  41  41  41  32  22  14  10  10  10  10  54  36  36  28  28  28  20  22  58  50  50  50  50  50  42  36  30  64  57  45  45  45  41  41  41  41  
54  54  54  45  36  22  22  20  51  51  51  41  22  14  14  10  50  40  20   0   0   0   0  10  41  41  41  32  22  14  10  10  10  10  54  36  36  28  28  28  20  22  58  50  50  50  50  50  42  36  30  64  57  45  45  45  41  41  41  41  
54  54  54  45  36  22  22  20  51  51  51  41  22  14  14  10  50  40  20   0   0   0   0  10  41  41  41  32  22  14  10  10  10  10  54  36  36  28  28  28  20  22  58  50  50  50  50  50  42  36  30  64  57  45  45  45  41  41  41  41  
63  63  63  54  45  28  28  22  61  61  61  51  32  22  22  14  60  50  30  10  10  10  10   0  51  51  51  41  32  22  14  14  14  14  63  45  45  36  36  36  22  20  67  58  58  58  58  58  50  42  32  72  64  50  50  50  45  40  40  40  
32  32  32  30  32  42  42  50  22  22  22  20  28  36  36  45  14  10  22  41  41  41  41  51   0   0   0  10  20  30  40  40  40  40  14  14  14  22  22  22  41  51  22  20  20  20  20  20  22  28  45  32  30  36  36  36  42  58  58  58  
32  32  32  30  32  42  42  50  22  22  22  20  28  36  36  45  14  10  22  41  41  41  41  51   0   0   0  10  20  30  40  40  40  40  14  14  14  22  22  22  41  51  22  20  20  20  20  20  22  28  45  32  30  36  36  36  42  58  58  58  
32  32  32  30  32  42  42  50  22  22  22  20  28  36  36  45  14  10  22  41  41  41  41  51   0   0   0  10  20  30  40  40  40  40  14  14  14  22  22  22  41  51  22  20  20  20  20  20  22  28  45  32  30  36  36  36  42  58  58  58  
36  36  36  32  30  36  36  42  28  28  28  22  22  28  28  36  22  14  14  32  32  32  32  41  10  10  10   0  10  20  30  30  30  30  22  10  10  14  14  14  32  41  28  22  22  22  22  22  20  22  36  36  32  32  32  32  36  50  50  50  
42  42  42  36  32  32  32  36  36  36  36  28  20  22  22  28  32  22  10  22  22  22  22  32  20  20  20  10   0  10  20  20  20  20  32  14  14  10  10  10  22  32  36  28  28  28  28  28  22  20  28  42  36  30  30  30  32  42  42  42  
50  50  50  42  36  30  30  32  45  45  45  36  22  20  20  22  41  32  14  14  14  14  14  22  30  30  30  20  10   0  10  10  10  10  41  22  22  14  14  14  14  22  45  36  36  36  36  36  28  22  22  50  42  32  32  32  30  36  36  36  
58  58  58  50  42  32  32  30  54  54  54  45  28  22  22  20  51  41  22  10  10  10  10  14  40  40  40  30  20  10   0   0   0   0  51  32  32  22  22  22  10  14  54  45  45  45  45  45  36  28  20  58  50  36  36  36  32  32  32  32  
58  58  58  50  42  32  32  30  54  54  54  45  28  22  22  20  51  41  22  10  10  10  10  14  40  40  40  30  20  10   0   0   0   0  51  32  32  22  22  22  10  14  54  45  45  45  45  45  36  28  20  58  50  36  36  36  32  32  32  32  
58  58  58  50  42  32  32  30  54  54  54  45  28  22  22  20  51  41  22  10  10  10  10  14  40  40  40  30  20  10   0   0   0   0  51  32  32  22  22  22  10  14  54  45  45  45  45  45  36  28  20  58  50  36  36  36  32  32  32  32  
58  58  58  50  42  32  32  30  54  54  54  45  28  22  22  20  51  41  22  10  10  10  10  14  40  40  40  30  20  10   0   0   0   0  51  32  32  22  22  22  10  14  54  45  45  45  45  45  36  28  20  58  50  36  36  36  32  32  32  32  
40  40  40  41  45  57  57  64  30  30  30  32  42  50  50  58  20  22  36  54  54  54  54  63  14  14  14  22  32  41  51  51  51  51   0  20  20  30  30  30  50  60  10  14  14  14  14  14  22  32  51  20  22  36  36  36  45  63  63  63  
45  45  45  41  40  45  45  50  36  36  36  32  32  36  36  42  28  22  22  36  36  36  36  45  14  14  14  10  14  22  32  32  32  32  20   0   0  10  10  10  30  40  22  14  14  14  14  14  10  14  32  28  22  22  22  22  28  45  45  45  
45  45  45  41  40  45  45  50  36  36  36  32  32  36  36  42  28  22  22  36  36  36  36  45  14  14  14  10  14  22  32  32  32  32  20   0   0  10  10  10  30  40  22  14  14  14  14  14  10  14  32  28  22  22  22  22  28  45  45  45  
50  50  50  45  41  41  41  45  42  42  42  36  30  32  32  36  36  28  20  28  28  28  28  36  22  22  22  14  10  14  22  22  22  22  30  10  10   0   0   0  20  30  32  22  22  22  22  22  14  10  22  36  28  20  20  20  22  36  36  36  
50  50  50  45  41  41  41  45  42  42  42  36  30  32  32  36  36  28  20  28  28  28  28  36  22  22  22  14  10  14  22  22  22  22  30  10  10   0   0   0  20  30  32  22  22  22  22  22  14  10  22  36  28  20  20  20  22  36  36  36  
50  50  50  45  41  41  41  45  42  42  42  36  30  32  32  36  36  28  20  28  28  28  28  36  22  22  22  14  10  14  22  22  22  22  30  10  10   0   0   0  20  30  32  22  22  22  22  22  14  10  22  36  28  20  20  20  22  36  36  36  
64  64  64  57  50  41  41  40  58  58  58  50  36  32  32  30  54  45  28  20  20  20  20  22  41  41  41  32  22  14  10  10  10  10  50  30  30  20  20  20   0  10  51  41  41  41  41  41  32  22  10  54  45  28  28  28  22  22  22  22  
72  72  72  64  57  45  45  41  67  67  67  58  42  36  36  32  63  54  36  22  22  22  22  20  51  51  51  41  32  22  14  14  14  14  60  40  40  30  30  30  10   0  61  51  51  51  51  51  41  32  14  63  54  36  36  36  28  20  20  20  
50  50  50  51  54  64  64  71  40  40  40  41  50  57  57  64  30  32  42  58  58  58  58  67  22  22  22  28  36  45  54  54  54  54  10  22  22  32  32  32  51  61   0  10  10  10  10  10  20  30  50  10  14  32  32  32  41  61  61  61  
51  51  51  50  51  58  58  64  41  41  41  40  45  50  50  57  32  30  36  50  50  50  50  58  20  20  20  22  28  36  45  45  45  45  14  14  14  22  22  22  41  51  10   0   0   0   0   0  10  20  40  14  10  22  22  22  32  51  51  51  
51  51  51  50  51  58  58  64  41  41  41  40  45  50  50  57  32  30  36  50  50  50  50  58  20  20  20  22  28  36  45  45  45  45  14  14  14  22  22  22  41  51  10   0   0   0   0   0  10  20  40  14  10  22  22  22  32  51  51  51  
51  51  51  50  51  58  58  64  41  41  41  40  45  50  50  57  32  30  36  50  50  50  50  58  20  20  20  22  28  36  45  45  45  45  14  14  14  22  22  22  41  51  10   0   0   0   0   0  10  20  40  14  10  22  22  22  32  51  51  51  
51  51  51  50  51  58  58  64  41  41  41  40  45  50  50  57  32  30  36  50  50  50  50  58  20  20  20  22  28  36  45  45  45  45  14  14  14  22  22  22  41  51  10   0   0   0   0   0  10  20  40  14  10  22  22  22  32  51  51  51  
51  51  51  50  51  58  58  64  41  41  41  40  45  50  50  57  32  30  36  50  50  50  50  58  20  20  20  22  28  36  45  45  45  45  14  14  14  22  22  22  41  51  10   0   0   0   0   0  10  20  40  14  10  22  22  22  32  51  51  51  
54  54  54  51  50  54  54  58  45  45  45  41  41  45  45  50  36  32  32  42  42  42  42  50  22  22  22  20  22  28  36  36  36  36  22  10  10  14  14  14  32  41  20  10  10  10  10  10   0  10  30  22  14  14  14  14  22  41  41  41  
58  58  58  54  51  51  51  54  50  50  50  45  40  41  41  45  42  36  30  36  36  36  36  42  28  28  28  22  20  22  28  28  28  28  32  14  14  10  10  10  22  32  30  20  20  20  20  20  10   0  20  32  22  10  10  10  14  32  32  32  
71  71  71  64  58  51  51  50  64  64  64  57  45  41  41  40  58  50  36  30  30  30  30  32  45  45  45  36  28  22  20  20  20  20  51  32  32  22  22  22  10  14  50  40  40  40  40  40  30  20   0  51  41  22  22  22  14  14  14  14  
60  60  60  61  63  72  72  78  50  50  50  51  58  64  64  71  40  41  50  64  64  64  64  72  32  32  32  36  42  50  58  58  58  58  20  28  28  36  36  36  54  63  10  14  14  14  14  14  22  32  51   0  10  30  30  30  40  60  60  60  
61  61  61  60  61  67  67  72  51  51  51  50  54  58  58  64  41  40  45  57  57  57  57  64  30  30  30  32  36  42  50  50  50  50  22  22  22  28  28  28  45  54  14  10  10  10  10  10  14  22  41  10   0  20  20  20  30  50  50  50  
67  67  67  63  61  61  61  63  58  58  58  54  50  51  51  54  50  45  40  45  45  45  45  50  36  36  36  32  30  32  36  36  36  36  36  22  22  20  20  20  28  36  32  22  22  22  22  22  14  10  22  30  20   0   0   0  10  30  30  30  
67  67  67  63  61  61  61  63  58  58  58  54  50  51  51  54  50  45  40  45  45  45  45  50  36  36  36  32  30  32  36  36  36  36  36  22  22  20  20  20  28  36  32  22  22  22  22  22  14  10  22  30  20   0   0   0  10  30  30  30  
67  67  67  63  61  61  61  63  58  58  58  54  50  51  51  54  50  45  40  45  45  45  45  50  36  36  36  32  30  32  36  36  36  36  36  22  22  20  20  20  28  36  32  22  22  22  22  22  14  10  22  30  20   0   0   0  10  30  30  30  
72  72  72  67  63  60  60  61  64  64  64  58  51  50  50  51  57  50  41  41  41  41  41  45  42  42  42  36  32  30  32  32  32  32  45  28  28  22  22  22  22  28  41  32  32  32  32  32  22  14  14  40  30  10  10  10   0  20  20  20  
85  85  85  78  72  63  63  61  78  78  78  71  58  54  54  51  72  64  50  41  41  41  41  40  58  58  58  50  42  36  32  32  32  32  63  45  45  36  36  36  22  20  61  51  51  51  51  51  41  32  14  60  50  30  30  30  20   0   0   0  
85  85  85  78  72  63  63  61  78  78  78  71  58  54  54  51  72  64  50  41  41  41  41  40  58  58  58  50  42  36  32  32  32  32  63  45  45  36  36  36  22  20  61  51  51  51  51  51  41  32  14  60  50  30  30  30  20   0   0   0  
85  85  85  78  72  63  63  61  78  78  78  71  58  54  54  51  72  64  50  41  41  41  41  40  58  58  58  50  42  36  32  32  32  32  63  45  45  36  36  36  22  20  61  51  51  51  51  51  41  32  14  60  50  30  30  30  20   0   0   0  

 0  34  30  28  28  28  28  28  28  26  30  28  28  26  28  30  28  28  26  28  26  28  28  26  32  28  30  30  28  28  28  28  28  24  28  24  28  28  24  34  32  32  28  34  28  30  28  26  24  30  28  28  26  28  28  28  28  28  26  28  
 0   0  27  33  28  25  28  34  32  30  31  25  28  36  28  36  24  26  36  28  26  24  34  37  24  32  25  26  24  24  28  28  27  32  22  32  22  28  38  18  24  24  22  22  24  26  29  31  28  26  28  28  30  28  33  28  28  27  36  32  
 0   0   0  21  34  25  28  28  22  40  33  43  34  26  28  16  32  14  20  28  40  36  24  29  28  34  11  32  34  28  32  28  23  34  18  38  28  26  32  32  24  18  38  26  16  26  23  29  32  36  24  38  20  28  27  18  38  39  26  26  
 0   0   0   0  34  25  37  28  17  28  23  24  42  28  29  24  32  24  12  28  38  32  28  27  28  30  15  34  32  25  22  28  23  34  28  34  37  13  28  38  28  28  28  28  26  29  27  27  24  36  28  34  28  28  23  28  28  29  36  18  
 0   0   0   0   0  28  24  28  44  18  44  28  22  28  18  29  34  28  42  18  28  33  28  34  32  16  29  16  34  18  34  28  33  22  21  16  28  34  28  32  24  18  30  42  30  28  24  28  22  39  29  16  24  32  24  28  38  38  27  34  
 0   0   0   0   0   0  28  34  16  36  25  21  30  38  28  32  36  14  30  36  28  32  30  37  34  24  27  28  32  40  28  28  17  28  22  32  22  32  34  32  14  28  14  28  36  28  25  37  36  20  34  32  30  24  25  28  20  27  30  28  
 0   0   0   0   0   0   0  32  32  28  28  28  28  28  28  28  28  28  41  28  28  28  28  28  28  28  32  28  28  28  28  28  28  28  28  28  19  37  28  32  24  28  24  32  24  28  24  28  28  28  28  28  24  32  24  28  28  28  28  28  
 0   0   0   0   0   0   0   0   9  18  32  25  28  22  23  22  22  43  34  18  31  22  22   7  44  43  14  43  22  27  28  28  37  28  40  48  34  28  22  18  27  27  32  34  32  37  32  23  34  29  28  34  32  24  40  28  46  38  22  19  
 0   0   0   0   0   0   0   0   0  36  18  14  34  36  29  15  26  24  23  36  33  26  28  22  42  36  18  40  26  50  22  28  23  34  34  49  28  22  28  28  24  37  18  24  30  38  32  36  38  11  36  40  32  24  28  28  20  28  28  18  
 0   0   0   0   0   0   0   0   0   0  40  18  28  18  18  40  28  38  36  10  34  28  28  26  30  28  30  30  18  10  18  28  36  28  42  28  28  28  28  30  36  28  22  44  38  30  28  18  28  38  20  28  36  28  28  38  36  32  26  28  
 0   0   0   0   0   0   0   0   0   0   0  28  28  40  38  32  19  24  26  31  25  11  28  23  24  30  34  32  26  42  25  28  29  28  34  34  28  28  28  24  28  38  25  19  32  26  27  29  38  16  31  34  30  28  27  28  15  22  30  24  
 0   0   0   0   0   0   0   0   0   0   0   0  28  35  29  28  28  32  37  38  40  22  48  35  28  24  40  28  22  42  21  18  36  38  32  33  22  24  44  32  32  37   9  15  38  38  33  29  28   9  25  24  38  32  18  38  21  14  48  20  
 0   0   0   0   0   0   0   0   0   0   0   0   0  28  28  26  28  28  34  28  22  28  28  26  30  22  42  22  28  36  34  28  36  22  28  22  28  34  28  22  30  28  28  28  34  28  28  28  36  20  30  22  26  28  28  28  28  28  20  34  
 0   0   0   0   0   0   0   0   0   0   0   0   0   0  28  14  39  30  16  27  41  35  18  20  20  28  33  30  28  20  31  28  36  28  34  32  34  32  22  30  32  28  39  27  32  30  24  18  32  38  17  32  26  24  24  28  39  25  16  32  
 0   0   0   0   0   0   0   0   0   0   0   0   0   0   0  28  28  28  39  18  28  28  28  28  38  28  18  28  28  17  28  28  28  28  28  23  28  28  28  28  33  18  28  38  28  27  28  33  28  38  28  28  28  28  28  28  38  38  28  28  
 0   0   0   0   0   0   0   0   0   0   0   0   0   0   0   0  39  11  24  35  46  40  22  31  30  15  18  17  42  41  41  28  40  28  25  37  34  28  22  30  30  27  41  23  22  35  28  30  32  26  26  28  18  28  20  18  41  35  25  33  
 0   0   0   0   0   0   0   0   0   0   0   0   0   0   0   0   0  36  38  21  14  11  32  22  34  38  28  34  18  24  28  28  28  28  34  30  28  24  28  18  32  28  22  28  20  28  32  28  26  28  28  30  28  32  39  28  28  28  32  28  
 0   0   0   0   0   0   0   0   0   0   0   0   0   0   0   0   0   0  30  28  36  32  30  43  28  15  18  19  42  32  38  28  28  28  12  32  22  32  34  32  24  18  32  28  26  28  24  28  36  38  28  32  18  24  24  18  38  38  30  37  
 0   0   0   0   0   0   0   0   0   0   0   0   0   0   0   0   0   0   0  38  42  34  18  26  12  28  30  30  34  39  22  28  22  34  28  32  43  17  22  38  28  38  44  16  30  31  28  26  26  20  28  32  30  20  32  28  18  18  16  26  
 0   0   0   0   0   0   0   0   0   0   0   0   0   0   0   0   0   0   0   0  36  31  18  28  30  28  18  28  28  10  28  38  36  18  28  28  28  28  18  28  36  28  36  48  28  28  28  20  28  46  20  28  28  28  45  28  46  38  18  28  
 0   0   0   0   0   0   0   0   0   0   0   0   0   0   0   0   0   0   0   0   0  18  32  20  42  32  33  30  18  23  31  28  17  22  34  15  28  30  28  14  24  19  17  33  26  21  32  34  26  31  39  24  26  32  29  28  17  31  30  34  
 0   0   0   0   0   0   0   0   0   0   0   0   0   0   0   0   0   0   0   0   0   0  38  22  34  38  29  34  18  24  28  18  27  38  33  34  28  28  38  18  28  18  22  18  24  28  28  28  30  29  29  34  28  28  29  28  28  28  37  32  
 0   0   0   0   0   0   0   0   0   0   0   0   0   0   0   0   0   0   0   0   0   0   0  22  28  28  28  28  28  28  28  38  28  18  34  32  34  32  12  28  24  38  34  38  32  28  24  28  32  28  28  32  28  24  38  28  28  28   8  32  
 0   0   0   0   0   0   0   0   0   0   0   0   0   0   0   0   0   0   0   0   0   0   0   0  36  43  31  45  22  28  28  28  31  28  40  34  34  28  22  24  30  28  28  30  28  30  27  25  34  30  30  34  24  28  27  28  28  29  20  19  
 0   0   0   0   0   0   0   0   0   0   0   0   0   0   0   0   0   0   0   0   0   0   0   0   0  22  38  22  34  30  28  28  34  32  22  26  28  28  32  30  30  34  42  14  28  28  28  20  26  26  18  22  30  28  28  28  26  18  28  28  
 0   0   0   0   0   0   0   0   0   0   0   0   0   0   0   0   0   0   0   0   0   0   0   0   0   0  34   7  38  32  34  28  34  22  22  16  28  34  28  32  28  28  34  28  38  28  28  28  26  28  28  16  28  28  24  28  28  28  28  39  
 0   0   0   0   0   0   0   0   0   0   0   0   0   0   0   0   0   0   0   0   0   0   0   0   0   0   0  32  38  10  29  28  22  37  19  34  28  22  28  28  32   8  45  35  16  26  33  31  20  53  30  34  24  24  30  18  45  53  39  22  
 0   0   0   0   0   0   0   0   0   0   0   0   0   0   0   0   0   0   0   0   0   0   0   0   0   0   0   0  34  28  34  28  34  22  22  16  28  34  28  26  28  28  34  26  34  26  28  30  22  26  28  16  30  28  28  28  28  28  30  43  
 0   0   0   0   0   0   0   0   0   0   0   0   0   0   0   0   0   0   0   0   0   0   0   0   0   0   0   0   0  24  18  28  28  28  44  34  28  28  32  18  28  38  12  28  34  28  28  28  30  18  24  34  38  32  32  38  18  18  28  32  
 0   0   0   0   0   0   0   0   0   0   0   0   0   0   0   0   0   0   0   0   0   0   0   0   0   0   0   0   0   0  28  28  27  28  28  19  28  28  28  24  36   9  36  38  24  18  28  20  16  63  20  28  28  28  32  28  46  38  36  32  
 0   0   0   0   0   0   0   0   0   0   0   0   0   0   0   0   0   0   0   0   0   0   0   0   0   0   0   0   0   0   0  28  22  34  38  34  28  22  28  34  28  38  21  31  32  28  28  28  28  18  31  34  38  28  25  38  15  21  28  22  
 0   0   0   0   0   0   0   0   0   0   0   0   0   0   0   0   0   0   0   0   0   0   0   0   0   0   0   0   0   0   0   0  28  38  28  28  33  28  38  28  28  18  28  18  28  28  28  28  33  28  28  28  28  33  13  28  28  28  38  28  
 0   0   0   0   0   0   0   0   0   0   0   0   0   0   0   0   0   0   0   0   0   0   0   0   0   0   0   0   0   0   0   0   0  34  27  25  28  22  28  34  18  19  20  28  22  19  29  37  28  30  35  34  30  28  29  28  20  27  27  22  
 0   0   0   0   0   0   0   0   0   0   0   0   0   0   0   0   0   0   0   0   0   0   0   0   0   0   0   0   0   0   0   0   0   0  28  18  28  34  14  26  32  42  28  42  34  28  28  28  24  28  28  22  28  28  38  28  28  25  18  34  
 0   0   0   0   0   0   0   0   0   0   0   0   0   0   0   0   0   0   0   0   0   0   0   0   0   0   0   0   0   0   0   0   0   0   0  22  22  28  34  34  28  18  42  24  18  28  28  28  22  39  29  22  18  28  28  18  38  34  33  28  
 0   0   0   0   0   0   0   0   0   0   0   0   0   0   0   0   0   0   0   0   0   0   0   0   0   0   0   0   0   0   0   0   0   0   0   0  28  30  24  32  41  23  34  32  30  19  32  33  14  37  28  12  28  32  28  28  28  28  32  30  
 0   0   0   0   0   0   0   0   0   0   0   0   0   0   0   0   0   0   0   0   0   0   0   0   0   0   0   0   0   0   0   0   0   0   0   0   0  37  34  28  28  28  22  28  28  28  28  28  23  28  28  28  28  23  33  28  28  28  34  28  
 0   0   0   0   0   0   0   0   0   0   0   0   0   0   0   0   0   0   0   0   0   0   0   0   0   0   0   0   0   0   0   0   0   0   0   0   0   0  28  34  32  28  28  28  18  28  32  28  24  28  28  30  28  32  28  28  28  28  32  18  
 0   0   0   0   0   0   0   0   0   0   0   0   0   0   0   0   0   0   0   0   0   0   0   0   0   0   0   0   0   0   0   0   0   0   0   0   0   0   0  32  32  42  34  42  28  28  28  28  24  28  32  28  28  24  38  28  28  28  12  28  
 0   0   0   0   0   0   0   0   0   0   0   0   0   0   0   0   0   0   0   0   0   0   0   0   0   0   0   0   0   0   0   0   0   0   0   0   0   0   0   0  28  24  26  18  34  26  32  30  34  26  28  28  34  24  36  28  28  28  30  38  
 0   0   0   0   0   0   0   0   0   0   0   0   0   0   0   0   0   0   0   0   0   0   0   0   0   0   0   0   0   0   0   0   0   0   0   0   0   0   0   0   0  24  16  28  28  28  20  31  36  20  34  32  26  28  24  28  20  28  24  32  
 0   0   0   0   0   0   0   0   0   0   0   0   0   0   0   0   0   0   0   0   0   0   0   0   0   0   0   0   0   0   0   0   0   0   0   0   0   0   0   0   0   0  38  24  18  19  28  28  32  57  28  28  18  28  18  18  48  48  38  28  
 0   0   0   0   0   0   0   0   0   0   0   0   0   0   0   0   0   0   0   0   0   0   0   0   0   0   0   0   0   0   0   0   0   0   0   0   0   0   0   0   0   0   0  33  34  28  24  36  34  10  33  34  34  32  27  38  13  19  34  28  
 0   0   0   0   0   0   0   0   0   0   0   0   0   0   0   0   0   0   0   0   0   0   0   0   0   0   0   0   0   0   0   0   0   0   0   0   0   0   0   0   0   0   0   0  32  26  32  30  32  16  25  28  34  24  25  28  21  11  40  28  
 0   0   0   0   0   0   0   0   0   0   0   0   0   0   0   0   0   0   0   0   0   0   0   0   0   0   0   0   0   0   0   0   0   0   0   0   0   0   0   0   0   0   0   0   0  28  28  38  20  38  28  30  24  36  28  18  38  38  32  22  
 0   0   0   0   0   0   0   0   0   0   0   0   0   0   0   0   0   0   0   0   0   0   0   0   0   0   0   0   0   0   0   0   0   0   0   0   0   0   0   0   0   0   0   0   0   0  28  30  28  35  28  28  30  28  28  28  28  28  30  28  
 0   0   0   0   0   0   0   0   0   0   0   0   0   0   0   0   0   0   0   0   0   0   0   0   0   0   0   0   0   0   0   0   0   0   0   0   0   0   0   0   0   0   0   0   0   0   0  27  32  28  28  32  24  28  23  28  28  29  24  32  
 0   0   0   0   0   0   0   0   0   0   0   0   0   0   0   0   0   0   0   0   0   0   0   0   0   0   0   0   0   0   0   0   0   0   0   0   0   0   0   0   0   0   0   0   0   0   0   0  28  38  20  28  16  28  27  28  36  29  26  28  
 0   0   0   0   0   0   0   0   0   0   0   0   0   0   0   0   0   0   0   0   0   0   0   0   0   0   0   0   0   0   0   0   0   0   0   0   0   0   0   0   0   0   0   0   0   0   0   0   0  36  28  18  28  27  37  28  28  28  40  28  
 0   0   0   0   0   0   0   0   0   0   0   0   0   0   0   0   0   0   0   0   0   0   0   0   0   0   0   0   0   0   0   0   0   0   0   0   0   0   0   0   0   0   0   0   0   0   0   0   0   0  35  28  40  28  28  38   0   8  23  28  
 0   0   0   0   0   0   0   0   0   0   0   0   0   0   0   0   0   0   0   0   0   0   0   0   0   0   0   0   0   0   0   0   0   0   0   0   0   0   0   0   0   0   0   0   0   0   0   0   0   0   0  28  30  32  31  28  39  25  29  28  
 0   0   0   0   0   0   0   0   0   0   0   0   0   0   0   0   0   0   0   0   0   0   0   0   0   0   0   0   0   0   0   0   0   0   0   0   0   0   0   0   0   0   0   0   0   0   0   0   0   0   0   0  28  32  28  28  28  28  32  30  
 0   0   0   0   0   0   0   0   0   0   0   0   0   0   0   0   0   0   0   0   0   0   0   0   0   0   0   0   0   0   0   0   0   0   0   0   0   0   0   0   0   0   0   0   0   0   0   0   0   0   0   0   0  32  24  18  38  38  26  28  
 0   0   0   0   0   0   0   0   0   0   0   0   0   0   0   0   0   0   0   0   0   0   0   0   0   0   0   0   0   0   0   0   0   0   0   0   0   0   0   0   0   0   0   0   0   0   0   0   0   0   0   0   0   0  37  28  28  28  24  32  
 0   0   0   0   0   0   0   0   0   0   0   0   0   0   0   0   0   0   0   0   0   0   0   0   0   0   0   0   0   0   0   0   0   0   0   0   0   0   0   0   0   0   0   0   0   0   0   0   0   0   0   0   0   0   0  28  17  32  38  24  
 0   0   0   0   0   0   0   0   0   0   0   0   0   0   0   0   0   0   0   0   0   0   0   0   0   0   0   0   0   0   0   0   0   0   0   0   0   0   0   0   0   0   0   0   0   0   0   0   0   0   0   0   0   0   0   0  38  38  28  28  
 0   0   0   0   0   0   0   0   0   0   0   0   0   0   0   0   0   0   0   0   0   0   0   0   0   0   0   0   0   0   0   0   0   0   0   0   0   0   0   0   0   0   0   0   0   0   0   0   0   0   0   0   0   0   0   0   0  11  28  28  
 0   0   0   0   0   0   0   0   0   0   0   0   0   0   0   0   0   0   0   0   0   0   0   0   0   0   0   0   0   0   0   0   0   0   0   0   0   0   0   0   0   0   0   0   0   0   0   0   0   0   0   0   0   0   0   0   0   0  28  28  
 0   0   0   0   0   0   0   0   0   0   0   0   0   0   0   0   0   0   0   0   0   0   0   0   0   0   0   0   0   0   0   0   0   0   0   0   0   0   0   0   0   0   0   0   0   0   0   0   0   0   0   0   0   0   0   0   0   0   0  32  
 0   0   0   0   0   0   0   0   0   0   0   0   0   0   0   0   0   0   0   0   0   0   0   0   0   0   0   0   0   0   0   0   0   0   0   0   0   0   0   0   0   0   0   0   0   0   0   0   0   0   0   0   0   0   0   0   0   0   0   0  
